(declare-const term_to_project_onto17_integralized Int)
(declare-const term_to_project_onto16_integralized Int)
(declare-const term_to_project_onto19_integralized Int)
(declare-const term_to_project_onto20_integralized Int)
(declare-const term_to_project_onto13_integralized Int)
(declare-const term_to_project_onto1_integralized Int)
(declare-const term_to_project_onto12_integralized Int)
(declare-const term_to_project_onto_integralized Int)
(declare-const term_to_project_onto24_integralized Int)
(declare-const term_to_project_onto14_integralized Int)
(declare-const param1@pos Int)
(declare-const gl_list.next Int)
(declare-const gl_list.next@pos Int)
(declare-const term_to_project_onto26_integralized Int)
(declare-const param2@width Int)
(declare-const term_to_project_onto15_integralized Int)
(declare-const gl_list.next@width Int)
(declare-const term_to_project_onto18_integralized Int)
(declare-const param2 Int)
(declare-const term_to_project_onto9_integralized Int)
(declare-const term_to_project_onto4_integralized Int)
(declare-const term_to_project_onto11_integralized Int)
(declare-const term_to_project_onto3_integralized Int)
(declare-const gl_list.4@pos Int)
(declare-const param2@pos Int)
(declare-const term_to_project_onto22_integralized Int)
(declare-const term_to_project_onto5_integralized Int)
(declare-const gl_list.4@width Int)
(declare-const term_to_project_onto6_integralized Int)
(declare-const term_to_project_onto27_integralized Int)
(declare-const term_to_project_onto25_integralized Int)
(declare-const term_to_project_onto8_integralized Int)
(declare-const term_to_project_onto0_integralized Int)
(declare-const term_to_project_onto2_integralized Int)
(declare-const term_to_project_onto10_integralized Int)
(declare-const param1@width Int)
(declare-const term_to_project_onto21_integralized Int)
(declare-const param1 Int)
(declare-const term_to_project_onto23_integralized Int)
(declare-const term_to_project_onto7_integralized Int)
(declare-const gl_list.4 Int)
(assert (exists
         ((|any_change'?1?1| Int) (type_err?2?2 Int) (type_err?3?3 Int)
            (store?4?4 Int) (store?5?5 Int) (type_err?6?6 Int)
            (type_err?7?7 Int) (store?8?8 Int) (store?9?9 Int) (tr?10?10 Int)
            (havoc?11?11 Int) (store?12?12 Int) (store?13?13 Int)
            (type_err?14?14 Int) (type_err?15?15 Int) (tr?16?16 Int)
            (tr?17?17 Int) (tr?18?18 Int) (tr?19?19 Int) (|pos0'?20?20| Int)
            (|pos1'?21?21| Int) (|val0'?22?22| Int) (|val1'?23?23| Int)
            (|__cil_tmp9'?24?24| Int) (|__cil_tmp10'?25?25| Int)
            (|return'?26?26| Int) (|param0'?27?27| Int)
            (|pos0@pos'?28?28| Int) (|pos1@pos'?29?29| Int)
            (|return@pos'?30?30| Int) (|param0@pos'?31?31| Int)
            (|pos0@width'?32?32| Int) (|pos1@width'?33?33| Int)
            (|return@width'?34?34| Int) (|param0@width'?35?35| Int)
            (K?36?36 Int) (|pos1@width'?37?37| Int) (|pos0@width'?38?38| Int)
            (|pos1@pos'?39?39| Int) (|pos0@pos'?40?40| Int)
            (|__cil_tmp10'?41?41| Int) (|__cil_tmp9'?42?42| Int)
            (|val1'?43?43| Int) (|val0'?44?44| Int) (|pos1'?45?45| Int)
            (|pos0'?46?46| Int) (|param2@width'?47?47| Int)
            (|param1@width'?48?48| Int) (|param0@width'?49?49| Int)
            (|return@width'?50?50| Int) (|gl_list.4@width'?51?51| Int)
            (|gl_list.next@width'?52?52| Int) (|param2@pos'?53?53| Int)
            (|param1@pos'?54?54| Int) (|param0@pos'?55?55| Int)
            (|return@pos'?56?56| Int) (|gl_list.4@pos'?57?57| Int)
            (|gl_list.next@pos'?58?58| Int) (|param2'?59?59| Int)
            (|param1'?60?60| Int) (|param0'?61?61| Int) (|return'?62?62| Int)
            (|gl_list.4'?63?63| Int) (|gl_list.next'?64?64| Int)
            (any_change?65?65 Int) (val1?66?66 Int) (val0?67?67 Int)
            (__cil_tmp10?68?68 Int) (__cil_tmp9?69?69 Int) (pos1?70?70 Int)
            (pos1@pos?71?71 Int) (pos1@width?72?72 Int) (pos0?73?73 Int)
            (pos0@pos?74?74 Int) (pos0@width?75?75 Int)
            (return@width?76?76 Int) (return@pos?77?77 Int)
            (return?78?78 Int) (param0@width?79?79 Int)
            (param0@pos?80?80 Int) (param0?81?81 Int))
         (and (<= (- any_change?65?65) 0)
                (or (and (= K?36?36 0)
                           (= (+ (- |param0@width'?35?35|) param0@width?79?79) 0)
                           (= (+ (- |return@width'?34?34|) return@width?76?76) 0)
                           (= (+ (- |pos1@width'?33?33|) pos1@width?72?72) 0)
                           (= (+ (- |pos0@width'?32?32|) pos0@width?75?75) 0)
                           (= (+ (- |param0@pos'?31?31|) param0@pos?80?80) 0)
                           (= (+ (- |return@pos'?30?30|) return@pos?77?77) 0)
                           (= (+ (- |pos1@pos'?29?29|) pos1@pos?71?71) 0)
                           (= (+ (- |pos0@pos'?28?28|) pos0@pos?74?74) 0)
                           (= (+ (- |param0'?27?27|) param0?81?81) 0)
                           (= (+ (- |return'?26?26|) return?78?78) 0)
                           (= (+ (- |__cil_tmp10'?25?25|) __cil_tmp10?68?68) 0)
                           (= (+ (- |__cil_tmp9'?24?24|) __cil_tmp9?69?69) 0)
                           (= (+ (- |val1'?23?23|) val1?66?66) 0)
                           (= (+ (- |val0'?22?22|) val0?67?67) 0)
                           (= (+ (- |pos1'?21?21|) pos1?70?70) 0)
                           (= (+ (- |pos0'?20?20|) pos0?73?73) 0))
                      (and (<= (+ (- K?36?36) 1) 0)
                             (= (+ |val1'?23?23| (- |return'?26?26|)) 0)
                             (= (+ |__cil_tmp9'?24?24| (- |param0'?27?27|)) 0)
                             (= (+ |pos1'?21?21| (- |param0'?27?27|)) 0)
                             (= (+ |pos0'?20?20| (- |param0'?27?27|)) 0)
                             (= (+ |pos1@pos'?29?29| (- |param0@pos'?31?31|)) 0)
                             (= (+ |pos0@pos'?28?28| (- |param0@pos'?31?31|)) 0)
                             (= (+ |pos1@width'?33?33|
                                     (- |param0@width'?35?35|)) 0)
                             (= (+ |pos0@width'?32?32|
                                     (- |param0@width'?35?35|)) 0)
                             (<= (+ |val0'?22?22| (- |return'?26?26|)) 0)))
                (<= (- K?36?36) 0)
                (or (<= (+ (- tr?18?18) tr?19?19 1) 0)
                      (<= (+ tr?18?18 (- tr?19?19) 1) 0))
                (<= (+ (- tr?17?17) tr?16?16 1) 0)
                (= (+ (- type_err?2?2) |param2@width'?47?47|) 0)
                (= (+ (- type_err?14?14) |param1@width'?48?48|) 0)
                (= (+ |param0@width'?49?49| (- |pos0@width'?32?32|)) 0)
                (= (+ (- type_err?3?3) |return@width'?50?50|) 0)
                (= (+ |pos1@width'?37?37| (- type_err?14?14)) 0)
                (= (+ |pos0@width'?38?38| (- |pos0@width'?32?32|)) 0)
                (= (+ (- store?4?4) |gl_list.4@width'?51?51|) 0)
                (= (+ (- store?5?5) |gl_list.next@width'?52?52|) 0)
                (= (+ (- type_err?6?6) |param2@pos'?53?53|) 0)
                (= (+ (- type_err?15?15) |param1@pos'?54?54|) 0)
                (= (+ |param0@pos'?55?55| (- |pos0@pos'?28?28|)) 0)
                (= (+ (- type_err?7?7) |return@pos'?56?56|) 0)
                (= (+ |pos1@pos'?39?39| (- type_err?15?15)) 0)
                (= (+ |pos0@pos'?40?40| (- |pos0@pos'?28?28|)) 0)
                (= (+ (- store?8?8) |gl_list.4@pos'?57?57|) 0)
                (= (+ (- store?9?9) |gl_list.next@pos'?58?58|) 0)
                (= (+ (- tr?10?10) |param2'?59?59|) 0)
                (= (+ |param1'?60?60| (- tr?18?18)) 0)
                (= (+ |param0'?61?61| (- |pos0'?20?20|)) 0)
                (= (+ (- havoc?11?11) |return'?62?62|) 0)
                (= (+ |__cil_tmp10'?41?41| (- tr?19?19)) 0)
                (= (+ |__cil_tmp9'?42?42| (- tr?18?18)) 0)
                (= (+ |val1'?43?43| (- tr?16?16)) 0)
                (= (+ |val0'?44?44| (- tr?17?17)) 0)
                (= (+ |pos1'?45?45| (- tr?18?18)) 0)
                (= (+ |pos0'?46?46| (- |pos0'?20?20|)) 0)
                (= (+ |any_change'?1?1| -1) 0)
                (= (+ (- store?12?12) |gl_list.4'?63?63|) 0)
                (= (+ (- store?13?13) |gl_list.next'?64?64|) 0)
                (= (+ term_to_project_onto27_integralized
                        (- (+ |gl_list.next'?64?64| (- gl_list.next)))) 0)
                (= (+ term_to_project_onto26_integralized
                        (- (+ |gl_list.4'?63?63| (- gl_list.4)))) 0)
                (= (+ term_to_project_onto25_integralized
                        (- (+ |any_change'?1?1| (- any_change?65?65)))) 0)
                (= (+ term_to_project_onto24_integralized
                        (- (+ |pos0'?46?46| (- pos0?73?73)))) 0)
                (= (+ term_to_project_onto23_integralized
                        (- (+ |pos1'?45?45| (- pos1?70?70)))) 0)
                (= (+ term_to_project_onto22_integralized
                        (- (+ |val0'?44?44| (- val0?67?67)))) 0)
                (= (+ term_to_project_onto21_integralized
                        (- (+ |val1'?43?43| (- val1?66?66)))) 0)
                (= (+ term_to_project_onto20_integralized
                        (- (+ |__cil_tmp9'?42?42| (- __cil_tmp9?69?69)))) 0)
                (= (+ term_to_project_onto19_integralized
                        (- (+ |__cil_tmp10'?41?41| (- __cil_tmp10?68?68)))) 0)
                (= (+ term_to_project_onto18_integralized
                        (- (+ |return'?62?62| (- return?78?78)))) 0)
                (= (+ term_to_project_onto17_integralized
                        (- (+ |param0'?61?61| (- param0?81?81)))) 0)
                (= (+ term_to_project_onto16_integralized
                        (- (+ |param1'?60?60| (- param1)))) 0)
                (= (+ term_to_project_onto15_integralized
                        (- (+ |param2'?59?59| (- param2)))) 0)
                (= (+ term_to_project_onto14_integralized
                        (- (+ |gl_list.next@pos'?58?58| (- gl_list.next@pos)))) 0)
                (= (+ term_to_project_onto13_integralized
                        (- (+ |gl_list.4@pos'?57?57| (- gl_list.4@pos)))) 0)
                (= (+ term_to_project_onto12_integralized
                        (- (+ |pos0@pos'?40?40| (- pos0@pos?74?74)))) 0)
                (= (+ term_to_project_onto11_integralized
                        (- (+ |pos1@pos'?39?39| (- pos1@pos?71?71)))) 0)
                (= (+ term_to_project_onto10_integralized
                        (- (+ |return@pos'?56?56| (- return@pos?77?77)))) 0)
                (= (+ term_to_project_onto9_integralized
                        (- (+ |param0@pos'?55?55| (- param0@pos?80?80)))) 0)
                (= (+ term_to_project_onto8_integralized
                        (- (+ |param1@pos'?54?54| (- param1@pos)))) 0)
                (= (+ term_to_project_onto7_integralized
                        (- (+ |param2@pos'?53?53| (- param2@pos)))) 0)
                (= (+ term_to_project_onto6_integralized
                        (- (+ |gl_list.next@width'?52?52|
                                (- gl_list.next@width)))) 0)
                (= (+ term_to_project_onto5_integralized
                        (- (+ |gl_list.4@width'?51?51| (- gl_list.4@width)))) 0)
                (= (+ term_to_project_onto4_integralized
                        (- (+ |pos0@width'?38?38| (- pos0@width?75?75)))) 0)
                (= (+ term_to_project_onto3_integralized
                        (- (+ |pos1@width'?37?37| (- pos1@width?72?72)))) 0)
                (= (+ term_to_project_onto2_integralized
                        (- (+ |return@width'?50?50| (- return@width?76?76)))) 0)
                (= (+ term_to_project_onto1_integralized
                        (- (+ |param0@width'?49?49| (- param0@width?79?79)))) 0)
                (= (+ term_to_project_onto0_integralized
                        (- (+ |param1@width'?48?48| (- param1@width)))) 0)
                (= (+ term_to_project_onto_integralized
                        (- (+ |param2@width'?47?47| (- param2@width)))) 0))))
(check-sat)